40 100000
90001 90000
89751 89750
10002 10001
89501 89500
10254 10252
89251 89250
10506 10503
89001 89000
10758 10754
88751 88750
11010 11005
88501 88500
11262 11256
88251 88250
11514 11507
88001 88000
11766 11758
87751 87750
12018 12009
87501 87500
12270 12260
87251 87250
12522 12511
87001 87000
12774 12762
86751 86750
13026 13013
86501 86500
13278 13264
86251 86250
13530 13515
86001 86000
13782 13766
85751 85750
14034 14017
85501 85500
14286 14268
85251 85250
14538 14519
86131 86130
